p cnf 48 372
-111 -111 0
-111 -121 0
-111 -131 0
-111 -141 0
-111 -211 0
-111 -221 0
-112 -112 0
-112 -122 0
-112 -132 0
-112 -142 0
-112 -212 0
-112 -222 0
-113 -113 0
-113 -123 0
-113 -133 0
-113 -143 0
-113 -213 0
-113 -223 0
-114 -114 0
-114 -124 0
-114 -134 0
-114 -144 0
-114 -214 0
-114 -224 0
-121 -111 0
-121 -121 0
-121 -131 0
-121 -141 0
-121 -211 0
-121 -221 0
-122 -112 0
-122 -122 0
-122 -132 0
-122 -142 0
-122 -212 0
-122 -222 0
-123 -113 0
-123 -123 0
-123 -133 0
-123 -143 0
-123 -213 0
-123 -223 0
-124 -114 0
-124 -124 0
-124 -134 0
-124 -144 0
-124 -214 0
-124 -224 0
-131 -111 0
-131 -121 0
-131 -131 0
-131 -141 0
-131 -231 0
-131 -241 0
-132 -112 0
-132 -122 0
-132 -132 0
-132 -142 0
-132 -232 0
-132 -242 0
-133 -113 0
-133 -123 0
-133 -133 0
-133 -143 0
-133 -233 0
-133 -243 0
-134 -114 0
-134 -124 0
-134 -134 0
-134 -144 0
-134 -234 0
-134 -244 0
-141 -111 0
-141 -121 0
-141 -131 0
-141 -141 0
-142 -112 0
-142 -122 0
-142 -132 0
-142 -142 0
-143 -113 0
-143 -123 0
-143 -133 0
-143 -143 0
-143 -233 0
-143 -243 0
-144 -114 0
-144 -124 0
-144 -134 0
-144 -144 0
-211 -111 0
-211 -121 0
-211 -211 0
-211 -221 0
-211 -231 0
-211 -241 0
-212 -112 0
-212 -122 0
-212 -212 0
-212 -222 0
-212 -232 0
-212 -242 0
-213 -113 0
-213 -123 0
-213 -213 0
-213 -223 0
-213 -233 0
-213 -243 0
-214 -114 0
-214 -124 0
-214 -214 0
-214 -224 0
-214 -234 0
-214 -244 0
-221 -111 0
-221 -121 0
-221 -211 0
-221 -221 0
-221 -231 0
-221 -241 0
-222 -112 0
-222 -122 0
-222 -212 0
-222 -222 0
-222 -232 0
-222 -242 0
-223 -113 0
-223 -123 0
-223 -213 0
-223 -223 0
-223 -233 0
-223 -243 0
-224 -114 0
-224 -124 0
-224 -214 0
-224 -224 0
-224 -234 0
-224 -244 0
-231 -211 0
-231 -221 0
-231 -231 0
-231 -241 0
-232 -212 0
-232 -222 0
-232 -232 0
-232 -242 0
-233 -213 0
-233 -223 0
-233 -233 0
-233 -243 0
-234 -134 0
-234 -144 0
-234 -214 0
-234 -224 0
-234 -234 0
-234 -244 0
-241 -131 0
-241 -141 0
-241 -211 0
-241 -221 0
-241 -231 0
-241 -241 0
-242 -212 0
-242 -222 0
-242 -232 0
-242 -242 0
-243 -213 0
-243 -223 0
-243 -233 0
-243 -243 0
-244 -214 0
-244 -224 0
-244 -234 0
-244 -244 0
-311 -211 0
-311 -311 0
-311 -321 0
-311 -331 0
-311 -341 0
-311 -411 0
-311 -421 0
-312 -312 0
-312 -322 0
-312 -332 0
-312 -342 0
-313 -313 0
-313 -323 0
-313 -333 0
-313 -343 0
-314 -314 0
-314 -324 0
-314 -334 0
-314 -344 0
-321 -311 0
-321 -321 0
-321 -331 0
-321 -341 0
-322 -312 0
-322 -322 0
-322 -332 0
-322 -342 0
-323 -313 0
-323 -323 0
-323 -333 0
-323 -343 0
-324 -314 0
-324 -324 0
-324 -334 0
-324 -344 0
-324 -414 0
-324 -424 0
-331 -311 0
-331 -321 0
-331 -331 0
-331 -341 0
-331 -431 0
-331 -441 0
-332 -312 0
-332 -322 0
-332 -332 0
-332 -342 0
-332 -432 0
-332 -442 0
-333 -313 0
-333 -323 0
-333 -333 0
-333 -343 0
-333 -433 0
-333 -443 0
-334 -314 0
-334 -324 0
-334 -334 0
-334 -344 0
-334 -434 0
-334 -444 0
-341 -311 0
-341 -321 0
-341 -331 0
-341 -341 0
-341 -431 0
-341 -441 0
-342 -312 0
-342 -322 0
-342 -332 0
-342 -342 0
-342 -432 0
-342 -442 0
-343 -313 0
-343 -323 0
-343 -333 0
-343 -343 0
-343 -433 0
-343 -443 0
-344 -314 0
-344 -324 0
-344 -334 0
-344 -344 0
-344 -434 0
-344 -444 0
-411 -411 0
-411 -421 0
-411 -431 0
-411 -441 0
-412 -412 0
-412 -422 0
-412 -432 0
-412 -442 0
-413 -213 0
-413 -313 0
-413 -323 0
-413 -413 0
-413 -423 0
-413 -433 0
-413 -443 0
-414 -414 0
-414 -424 0
-414 -434 0
-414 -444 0
-421 -311 0
-421 -321 0
-421 -411 0
-421 -421 0
-421 -431 0
-421 -441 0
-422 -312 0
-422 -322 0
-422 -412 0
-422 -422 0
-422 -432 0
-422 -442 0
-423 -313 0
-423 -323 0
-423 -413 0
-423 -423 0
-423 -433 0
-423 -443 0
-424 -314 0
-424 -324 0
-424 -414 0
-424 -424 0
-424 -434 0
-424 -444 0
-431 -331 0
-431 -341 0
-431 -411 0
-431 -421 0
-431 -431 0
-431 -441 0
-432 -332 0
-432 -342 0
-432 -412 0
-432 -422 0
-432 -432 0
-432 -442 0
-433 -333 0
-433 -343 0
-433 -413 0
-433 -423 0
-433 -433 0
-433 -443 0
-434 -334 0
-434 -344 0
-434 -414 0
-434 -424 0
-434 -434 0
-434 -444 0
-441 -331 0
-441 -341 0
-441 -411 0
-441 -421 0
-441 -431 0
-441 -441 0
-442 -332 0
-442 -342 0
-442 -412 0
-442 -422 0
-442 -432 0
-442 -442 0
-443 -333 0
-443 -343 0
-443 -413 0
-443 -423 0
-443 -433 0
-443 -443 0
-444 -334 0
-444 -344 0
-444 -414 0
-444 -424 0
-444 -434 0
-444 -444 0
111 112 113 114 0
121 122 123 124 0
131 132 133 134 0
141 142 143 144 0
143 0
211 212 213 214 0
221 222 223 224 0
231 232 233 234 0
234 0
241 0
241 242 243 244 0
311 0
311 312 313 314 0
321 322 323 324 0
324 0
331 332 333 334 0
341 342 343 344 0
411 412 413 414 0
413 0
421 422 423 424 0
431 432 433 434 0
441 442 443 444 0
